NAME /Users/henri/Research/solvers/instances/idol-instances/robust/collection/cbp_Subramanyam_et_al_2020/CapBud_N25_16/models/uncertain_technology_matrix/
ROWS
 N  OBJ
 L  capacity
 L  c_4735
 L  c_4736
 L  c_4737
 L  c_4738
 L  c_4739
 L  c_4740
 L  c_4741
 L  c_4742
 L  c_4743
 L  c_4744
 L  c_4745
 L  c_4746
 L  c_4747
 L  c_4748
 L  c_4749
 L  c_4750
 L  c_4751
 L  c_4752
 L  c_4753
 L  c_4754
 L  c_4755
 L  c_4756
 L  c_4757
 L  c_4758
 L  c_4759
COLUMNS
    MARKER    'MARKER'                 'INTORG'
    x_0        OBJ        -8.44099
    x_0        c_4735     1
    x_0        capacity   1.6882
    x_1        OBJ        -4.5027
    x_1        c_4736     1
    x_1        capacity   0.90054
    x_2        OBJ        -0.239252
    x_2        c_4737     1
    x_2        capacity   0.0478505
    x_3        OBJ        -1.37455
    x_3        c_4738     1
    x_3        capacity   0.274909
    x_4        OBJ        -3.08627
    x_4        c_4739     1
    x_4        capacity   0.617253
    x_5        OBJ        -4.179
    x_5        c_4740     1
    x_5        capacity   0.8358
    x_6        OBJ        -0.271275
    x_6        c_4741     1
    x_6        capacity   0.0542551
    x_7        OBJ        -9.99896
    x_7        c_4742     1
    x_7        capacity   1.99979
    x_8        OBJ        -8.77295
    x_8        c_4743     1
    x_8        capacity   1.75459
    x_9        OBJ        -2.73677
    x_9        c_4744     1
    x_9        capacity   0.547355
    x_10       OBJ        -3.17889
    x_10       c_4745     1
    x_10       capacity   0.635778
    x_11       OBJ        -9.74132
    x_11       c_4746     1
    x_11       capacity   1.94826
    x_12       OBJ        -2.1011
    x_12       c_4747     1
    x_12       capacity   0.420221
    x_13       OBJ        -7.21998
    x_13       c_4748     1
    x_13       capacity   1.444
    x_14       OBJ        -3.03765
    x_14       c_4749     1
    x_14       capacity   0.607531
    x_15       OBJ        -5.23329
    x_15       c_4750     1
    x_15       capacity   1.04666
    x_16       OBJ        -9.2189
    x_16       c_4751     1
    x_16       capacity   1.84378
    x_17       OBJ        -1.37438
    x_17       c_4752     1
    x_17       capacity   0.274877
    x_18       OBJ        -5.17565
    x_18       c_4753     1
    x_18       capacity   1.03513
    x_19       OBJ        -8.29349
    x_19       c_4754     1
    x_19       capacity   1.6587
    x_20       OBJ        -0.33556
    x_20       c_4755     1
    x_20       capacity   0.0671121
    x_21       OBJ        -7.82853
    x_21       c_4756     1
    x_21       capacity   1.56571
    x_22       OBJ        -8.25841
    x_22       c_4757     1
    x_22       capacity   1.65168
    x_23       OBJ        -5.59201
    x_23       c_4758     1
    x_23       capacity   1.1184
    x_24       OBJ        -4.58798
    x_24       c_4759     1
    x_24       capacity   0.917597
    y_0        OBJ        -6.75279
    y_0        c_4735     1
    y_0        capacity   1.6882
    y_1        OBJ        -3.60216
    y_1        c_4736     1
    y_1        capacity   0.90054
    y_2        OBJ        -0.191402
    y_2        c_4737     1
    y_2        capacity   0.0478505
    y_3        OBJ        -1.09964
    y_3        c_4738     1
    y_3        capacity   0.274909
    y_4        OBJ        -2.46901
    y_4        c_4739     1
    y_4        capacity   0.617253
    y_5        OBJ        -3.3432
    y_5        c_4740     1
    y_5        capacity   0.8358
    y_6        OBJ        -0.21702
    y_6        c_4741     1
    y_6        capacity   0.0542551
    y_7        OBJ        -7.99917
    y_7        c_4742     1
    y_7        capacity   1.99979
    y_8        OBJ        -7.01836
    y_8        c_4743     1
    y_8        capacity   1.75459
    y_9        OBJ        -2.18942
    y_9        c_4744     1
    y_9        capacity   0.547355
    y_10       OBJ        -2.54311
    y_10       c_4745     1
    y_10       capacity   0.635778
    y_11       OBJ        -7.79305
    y_11       c_4746     1
    y_11       capacity   1.94826
    y_12       OBJ        -1.68088
    y_12       c_4747     1
    y_12       capacity   0.420221
    y_13       OBJ        -5.77598
    y_13       c_4748     1
    y_13       capacity   1.444
    y_14       OBJ        -2.43012
    y_14       c_4749     1
    y_14       capacity   0.607531
    y_15       OBJ        -4.18663
    y_15       c_4750     1
    y_15       capacity   1.04666
    y_16       OBJ        -7.37512
    y_16       c_4751     1
    y_16       capacity   1.84378
    y_17       OBJ        -1.09951
    y_17       c_4752     1
    y_17       capacity   0.274877
    y_18       OBJ        -4.14052
    y_18       c_4753     1
    y_18       capacity   1.03513
    y_19       OBJ        -6.63479
    y_19       c_4754     1
    y_19       capacity   1.6587
    y_20       OBJ        -0.268448
    y_20       c_4755     1
    y_20       capacity   0.0671121
    y_21       OBJ        -6.26283
    y_21       c_4756     1
    y_21       capacity   1.56571
    y_22       OBJ        -6.60673
    y_22       c_4757     1
    y_22       capacity   1.65168
    y_23       OBJ        -4.47361
    y_23       c_4758     1
    y_23       capacity   1.1184
    y_24       OBJ        -3.67039
    y_24       c_4759     1
    y_24       capacity   0.917597
    MARKER    'MARKER'                 'INTEND'
RHS
    RHS       capacity   62.3899
    RHS       c_4735     1
    RHS       c_4736     1
    RHS       c_4737     1
    RHS       c_4738     1
    RHS       c_4739     1
    RHS       c_4740     1
    RHS       c_4741     1
    RHS       c_4742     1
    RHS       c_4743     1
    RHS       c_4744     1
    RHS       c_4745     1
    RHS       c_4746     1
    RHS       c_4747     1
    RHS       c_4748     1
    RHS       c_4749     1
    RHS       c_4750     1
    RHS       c_4751     1
    RHS       c_4752     1
    RHS       c_4753     1
    RHS       c_4754     1
    RHS       c_4755     1
    RHS       c_4756     1
    RHS       c_4757     1
    RHS       c_4758     1
    RHS       c_4759     1
BOUNDS
 LI BND       x_0        0
 UI BND       x_0        1
 LI BND       x_1        0
 UI BND       x_1        1
 LI BND       x_2        0
 UI BND       x_2        1
 LI BND       x_3        0
 UI BND       x_3        1
 LI BND       x_4        0
 UI BND       x_4        1
 LI BND       x_5        0
 UI BND       x_5        1
 LI BND       x_6        0
 UI BND       x_6        1
 LI BND       x_7        0
 UI BND       x_7        1
 LI BND       x_8        0
 UI BND       x_8        1
 LI BND       x_9        0
 UI BND       x_9        1
 LI BND       x_10       0
 UI BND       x_10       1
 LI BND       x_11       0
 UI BND       x_11       1
 LI BND       x_12       0
 UI BND       x_12       1
 LI BND       x_13       0
 UI BND       x_13       1
 LI BND       x_14       0
 UI BND       x_14       1
 LI BND       x_15       0
 UI BND       x_15       1
 LI BND       x_16       0
 UI BND       x_16       1
 LI BND       x_17       0
 UI BND       x_17       1
 LI BND       x_18       0
 UI BND       x_18       1
 LI BND       x_19       0
 UI BND       x_19       1
 LI BND       x_20       0
 UI BND       x_20       1
 LI BND       x_21       0
 UI BND       x_21       1
 LI BND       x_22       0
 UI BND       x_22       1
 LI BND       x_23       0
 UI BND       x_23       1
 LI BND       x_24       0
 UI BND       x_24       1
 LI BND       y_0        0
 UI BND       y_0        1
 LI BND       y_1        0
 UI BND       y_1        1
 LI BND       y_2        0
 UI BND       y_2        1
 LI BND       y_3        0
 UI BND       y_3        1
 LI BND       y_4        0
 UI BND       y_4        1
 LI BND       y_5        0
 UI BND       y_5        1
 LI BND       y_6        0
 UI BND       y_6        1
 LI BND       y_7        0
 UI BND       y_7        1
 LI BND       y_8        0
 UI BND       y_8        1
 LI BND       y_9        0
 UI BND       y_9        1
 LI BND       y_10       0
 UI BND       y_10       1
 LI BND       y_11       0
 UI BND       y_11       1
 LI BND       y_12       0
 UI BND       y_12       1
 LI BND       y_13       0
 UI BND       y_13       1
 LI BND       y_14       0
 UI BND       y_14       1
 LI BND       y_15       0
 UI BND       y_15       1
 LI BND       y_16       0
 UI BND       y_16       1
 LI BND       y_17       0
 UI BND       y_17       1
 LI BND       y_18       0
 UI BND       y_18       1
 LI BND       y_19       0
 UI BND       y_19       1
 LI BND       y_20       0
 UI BND       y_20       1
 LI BND       y_21       0
 UI BND       y_21       1
 LI BND       y_22       0
 UI BND       y_22       1
 LI BND       y_23       0
 UI BND       y_23       1
 LI BND       y_24       0
 UI BND       y_24       1
ENDATA
